Route #1: 26 72 39 9 32 50 18 55 25 31 10 58
Route #2: 12 40 44 3 24 49 56 23 63 16 51 17
Route #3: 38 65 66 11 59 14 53 35 7
Route #4: 67 46 34 52 27 45 29 48 30 4
Route #5: 8 19 54 13 57 15 5 37 20 70 60 71 69 36 47
Route #6: 74 21 61 28 62 22 64 42 41 43 1 73
Route #7: 6 33 2 68 75
Cost 712